(set-info :source |printed by MathSAT|)
(declare-fun |main::result@2| () (_ BitVec 32))
(declare-fun |main::local_18@2| () (_ BitVec 32))
(declare-fun |ackermann::m__param__@2| () (_ BitVec 32))
(declare-fun |ackermann::n__param__@2| () (_ BitVec 32))
(declare-fun |ackermann::m@2| () (_ BitVec 32))
(declare-fun |ackermann::n@2| () (_ BitVec 32))
(declare-fun |ackermann::m__param__@3| () (_ BitVec 32))
(declare-fun |ackermann::n__param__@3| () (_ BitVec 32))
(declare-fun |ackermann::__retval__@2| () (_ BitVec 32))
(declare-fun |ackermann::m__param__@4| () (_ BitVec 32))
(declare-fun |ackermann::n__param__@4| () (_ BitVec 32))
(declare-fun |ackermann::__retval__@3| () (_ BitVec 32))
(declare-fun |ackermann::iVar1@6| () (_ BitVec 32))
(declare-fun |ackermann::__retval__@4| () (_ BitVec 32))
(declare-fun |ackermann::m@3| () (_ BitVec 32))
(declare-fun |ackermann::n@3| () (_ BitVec 32))
(declare-fun |ackermann::m__param__@5| () (_ BitVec 32))
(declare-fun |ackermann::n__param__@5| () (_ BitVec 32))
(declare-fun |ackermann::m@5| () (_ BitVec 32))
(declare-fun |ackermann::n@5| () (_ BitVec 32))
(declare-fun |ackermann::iVar1@8| () (_ BitVec 32))
(declare-fun |ackermann::iVar1@10| () (_ BitVec 32))
(declare-fun |ackermann::m@4| () (_ BitVec 32))
(declare-fun |ackermann::__retval__@5| () (_ BitVec 32))
(declare-fun |ackermann::n@4| () (_ BitVec 32))
(declare-fun |main::iVar1@8| () (_ BitVec 32))
(declare-fun |ackermann::m__param__@8| () (_ BitVec 32))
(declare-fun |ackermann::n__param__@8| () (_ BitVec 32))
(declare-fun |ackermann::m@8| () (_ BitVec 32))
(declare-fun |ackermann::n@8| () (_ BitVec 32))
(declare-fun |ackermann::iVar1@12| () (_ BitVec 32))
(declare-fun |ackermann::iVar1@14| () (_ BitVec 32))
(declare-fun |ackermann::iVar1@16| () (_ BitVec 32))
(declare-fun |ackermann::__retval__@6| () (_ BitVec 32))
(declare-fun |main::iVar1@9| () (_ BitVec 32))
(assert (let ((.def_43 (= |main::local_18@2| |ackermann::n__param__@2|)))(let ((.def_41 (= |main::result@2| |ackermann::m__param__@2|)))(let ((.def_44 (and .def_41 .def_43)))(let ((.def_34 (bvslt (_ bv23 32) |main::local_18@2|)))(let ((.def_37 (not .def_34)))(let ((.def_27 ((_ extract 31 31) |main::local_18@2|)))(let ((.def_28 (= .def_27 (_ bv1 1))))(let ((.def_31 (not .def_28)))(let ((.def_19 (bvslt (_ bv3 32) |main::result@2|)))(let ((.def_22 (not .def_19)))(let ((.def_13 ((_ extract 31 31) |main::result@2|)))(let ((.def_14 (= .def_13 (_ bv1 1))))(let ((.def_17 (not .def_14)))(let ((.def_23 (and .def_17 .def_22)))(let ((.def_32 (and .def_23 .def_31)))(let ((.def_38 (and .def_32 .def_37)))(let ((.def_762 (and .def_38 .def_44)))(let ((.def_48 (= |ackermann::n__param__@2| |ackermann::n@2|)))(let ((.def_46 (= |ackermann::m__param__@2| |ackermann::m@2|)))(let ((.def_49 (and .def_46 .def_48)))(let ((.def_763 (and .def_49 .def_762)))(let ((.def_50 (= |ackermann::m@2| (_ bv0 32))))(let ((.def_53 (not .def_50)))(let ((.def_764 (and .def_53 .def_763)))(let ((.def_55 (= |ackermann::n@2| (_ bv0 32))))(let ((.def_765 (and .def_55 .def_764)))(let ((.def_73 (= |ackermann::n__param__@3| (_ bv1 32))))(let ((.def_71 (bvadd (_ bv4294967295 32) |ackermann::m@2|)))(let ((.def_72 (= |ackermann::m__param__@3| .def_71)))(let ((.def_74 (and .def_72 .def_73)))(let ((.def_766 (and .def_74 .def_765)))(let ((.def_215 (= |ackermann::n__param__@3| |ackermann::n@3|)))(let ((.def_213 (= |ackermann::m__param__@3| |ackermann::m@3|)))(let ((.def_216 (and .def_213 .def_215)))(let ((.def_767 (and .def_216 .def_766)))(let ((.def_217 (= |ackermann::m@3| (_ bv0 32))))(let ((.def_485 (not .def_217)))(let ((.def_768 (and .def_485 .def_767)))(let ((.def_487 (= |ackermann::n@3| (_ bv0 32))))(let ((.def_736 (not .def_487)))(let ((.def_769 (and .def_736 .def_768)))(let ((.def_741 (bvadd (_ bv4294967295 32) |ackermann::n@3|)))(let ((.def_742 (= |ackermann::n__param__@4| .def_741)))(let ((.def_738 (= |ackermann::m__param__@4| |ackermann::m@3|)))(let ((.def_743 (and .def_738 .def_742)))(let ((.def_770 (and .def_743 .def_769)))(let ((.def_497 (= |ackermann::n__param__@4| |ackermann::n@4|)))(let ((.def_454 (= |ackermann::m__param__@4| |ackermann::m@4|)))(let ((.def_498 (and .def_454 .def_497)))(let ((.def_771 (and .def_498 .def_770)))(let ((.def_456 (= |ackermann::m@4| (_ bv0 32))))(let ((.def_744 (not .def_456)))(let ((.def_772 (and .def_744 .def_771)))(let ((.def_746 (= |ackermann::n@4| (_ bv0 32))))(let ((.def_773 (and .def_746 .def_772)))(let ((.def_753 (= |ackermann::n__param__@5| (_ bv1 32))))(let ((.def_751 (bvadd (_ bv4294967295 32) |ackermann::m@4|)))(let ((.def_752 (= |ackermann::m__param__@5| .def_751)))(let ((.def_754 (and .def_752 .def_753)))(let ((.def_774 (and .def_754 .def_773)))(let ((.def_234 (= |ackermann::n__param__@5| |ackermann::n@5|)))(let ((.def_232 (= |ackermann::m__param__@5| |ackermann::m@5|)))(let ((.def_235 (and .def_232 .def_234)))(let ((.def_775 (and .def_235 .def_774)))(let ((.def_236 (= |ackermann::m@5| (_ bv0 32))))(let ((.def_776 (and .def_236 .def_775)))(let ((.def_240 (bvadd (_ bv1 32) |ackermann::n@5|)))(let ((.def_755 (= |ackermann::iVar1@6| .def_240)))(let ((.def_777 (and .def_755 .def_776)))(let ((.def_225 (= |ackermann::__retval__@2| |ackermann::iVar1@6|)))(let ((.def_778 (and .def_225 .def_777)))(let ((.def_758 (= |ackermann::__retval__@2| |ackermann::iVar1@8|)))(let ((.def_779 (and .def_758 .def_778)))(let ((.def_244 (= |ackermann::__retval__@3| |ackermann::iVar1@8|)))(let ((.def_780 (and .def_244 .def_779)))(let ((.def_247 (= |ackermann::__retval__@3| |ackermann::iVar1@10|)))(let ((.def_781 (and .def_247 .def_780)))(let ((.def_760 (= |ackermann::iVar1@10| |ackermann::n__param__@8|)))(let ((.def_492 (bvadd (_ bv4294967295 32) |ackermann::m@3|)))(let ((.def_759 (= .def_492 |ackermann::m__param__@8|)))(let ((.def_761 (and .def_759 .def_760)))(let ((.def_782 (and .def_761 .def_781)))(let ((.def_592 (= |ackermann::n__param__@8| |ackermann::n@8|)))(let ((.def_590 (= |ackermann::m__param__@8| |ackermann::m@8|)))(let ((.def_593 (and .def_590 .def_592)))(let ((.def_783 (and .def_593 .def_782)))(let ((.def_594 (= |ackermann::m@8| (_ bv0 32))))(let ((.def_784 (and .def_594 .def_783)))(let ((.def_598 (bvadd (_ bv1 32) |ackermann::n@8|)))(let ((.def_600 (= .def_598 |ackermann::iVar1@12|)))(let ((.def_785 (and .def_600 .def_784)))(let ((.def_602 (= |ackermann::__retval__@4| |ackermann::iVar1@12|)))(let ((.def_786 (and .def_602 .def_785)))(let ((.def_605 (= |ackermann::__retval__@4| |ackermann::iVar1@14|)))(let ((.def_787 (and .def_605 .def_786)))(let ((.def_606 (= |ackermann::__retval__@5| |ackermann::iVar1@14|)))(let ((.def_788 (and .def_606 .def_787)))(let ((.def_608 (= |ackermann::__retval__@5| |ackermann::iVar1@16|)))(let ((.def_789 (and .def_608 .def_788)))(let ((.def_610 (= |ackermann::iVar1@16| |ackermann::__retval__@6|)))(let ((.def_790 (and .def_610 .def_789)))(let ((.def_611 (= |main::iVar1@8| |ackermann::__retval__@6|)))(let ((.def_791 (and .def_611 .def_790)))(let ((.def_86 (bvslt |main::result@2| (_ bv2 32))))(let ((.def_88 (not .def_86)))(let ((.def_792 (and .def_88 .def_791)))(let ((.def_612 (bvslt (_ bv3 32) |main::iVar1@8|)))(let ((.def_614 (not .def_612)))(let ((.def_793 (and .def_614 .def_792)))(let ((.def_617 (= |main::iVar1@9| (_ bv1048576 32))))(let ((.def_794 (and .def_617 .def_793))).def_794))))))))))))))))))))))))))))))))))))))))))))))))))))))))))))))))))))))))))))))))))))))))))))))))))))))))))))))))